c defined variables: 8 9 10 11 12 13 14 15 16 17 18 19 20 21 22 23 24 25 26 27 28 29 30 31 32 33 40 41 42 44 46 47 48 49 50 51 52 53 54 55 56 57 58 59 60 61 62 63 65 66 67 68 69 
p cnf 352 548
a 1 2 3 4 5 6 7 36 37 38 39 0
e 8 9 10 11 12 13 14 15 16 17 18 19 20 21 22 23 24 25 26 27 28 29 30 31 32 33 40 41 42 44 46 47 48 49 50 51 52 53 54 55 56 57 58 59 60 61 62 63 65 66 67 68 69 273 274 275 276 277 278 279 280 281 282 283 284 285 286 287 288 289 290 291 292 293 294 295 296 297 298 299 300 301 302 303 304 305 306 307 308 309 310 311 312 313 314 315 316 317 318 319 320 321 322 323 324 325 326 327 328 329 330 331 332 333 334 335 336 337 338 339 340 341 342 343 344 345 346 347 348 349 350 351 352 0
d 35 36 37 0
d 34 38 39 36 37 0
d 43 1 2 3 4 5 6 7 36 37 38 39 0
d 45 1 2 3 4 5 6 7 36 37 38 39 0
d 64 1 2 3 4 5 6 7 36 37 38 39 0
273 -8 0
-273 8 0
274 -9 0
-274 9 0
-275 -10 0
275 10 0
276 -11 0
-276 11 0
277 -12 0
-277 12 0
-278 -13 0
278 13 0
279 -14 0
-279 14 0
280 -15 0
-280 15 0
-281 -16 0
281 16 0
282 -17 0
-282 17 0
283 -18 0
-283 18 0
-284 -19 0
284 19 0
285 -20 0
-285 20 0
286 -21 0
-286 21 0
-287 -22 0
287 22 0
-288 -23 0
288 23 0
289 -24 0
-289 24 0
291 -25 0
-291 25 0
293 -26 0
-293 26 0
-295 -27 0
295 27 0
296 -28 0
-296 28 0
297 -29 0
-297 29 0
299 -30 0
-299 30 0
300 -31 0
-300 31 0
301 -32 0
-301 32 0
-305 -33 0
305 33 0
282 -40 0
-282 40 0
283 -41 0
-283 41 0
-306 -42 0
306 42 0
-43 -44 0
43 44 0
-307 -46 0
307 46 0
-288 -47 0
288 47 0
289 -48 0
-289 48 0
309 -49 0
-309 49 0
313 -50 0
-313 50 0
-315 -51 0
315 51 0
316 -52 0
-316 52 0
317 -53 0
-317 53 0
319 -54 0
-319 54 0
300 -55 0
-300 55 0
320 -56 0
-320 56 0
-324 -57 0
324 57 0
273 -58 0
-273 58 0
274 -59 0
-274 59 0
-325 -60 0
325 60 0
328 -61 0
-328 61 0
331 -62 0
-331 62 0
334 -63 0
-334 63 0
337 -65 0
-337 65 0
340 -66 0
-340 66 0
346 -67 0
-346 67 0
349 -68 0
-349 68 0
352 -69 0
-352 69 0
-8 1 0
-8 4 0
-1 -4 8 0
-9 -1 0
-9 -4 0
1 4 9 0
-8 10 0
-9 10 0
-10 8 9 0
-11 7 0
-11 10 0
-7 -10 11 0
-12 -7 0
-12 -10 0
7 10 12 0
-11 13 0
-12 13 0
-13 11 12 0
-14 4 0
-14 7 0
-4 -7 14 0
-15 1 0
-15 -13 0
-1 13 15 0
-14 16 0
-15 16 0
-16 14 15 0
-17 3 0
-17 6 0
-3 -6 17 0
-18 -3 0
-18 -6 0
3 6 18 0
-17 19 0
-18 19 0
-19 17 18 0
-20 16 0
-20 19 0
-16 -19 20 0
-21 -16 0
-21 -19 0
16 19 21 0
-20 22 0
-21 22 0
-22 20 21 0
-2 23 0
-5 23 0
-23 2 5 0
-24 2 0
-24 5 0
-2 -5 24 0
-25 3 0
-25 -22 0
-25 23 0
-3 22 -23 25 0
-26 6 0
-26 16 0
-26 23 0
-6 -16 -23 26 0
-24 27 0
-25 27 0
-26 27 0
-27 24 25 26 0
-28 -27 0
-28 23 0
27 -23 28 0
-29 3 0
-29 6 0
-29 -27 0
-3 -6 27 29 0
-30 -27 0
-30 -22 0
-30 16 0
27 22 -16 30 0
-31 2 0
-31 3 0
-31 5 0
-31 6 0
-2 -3 -5 -6 31 0
-32 2 0
-32 5 0
-32 -22 0
-32 16 0
-2 -5 22 -16 32 0
-28 33 0
-29 33 0
-30 33 0
-31 33 0
-32 33 0
-33 28 29 30 31 32 0
-40 3 0
-40 6 0
-3 -6 40 0
-41 -3 0
-41 -6 0
3 6 41 0
-40 42 0
-41 42 0
-42 40 41 0
-43 34 0
-43 42 0
-34 -42 43 0
-43 -44 0
43 44 0
-45 -34 0
-45 -42 0
34 42 45 0
-44 46 0
-45 46 0
-46 44 45 0
-2 47 0
-5 47 0
-47 2 5 0
-48 2 0
-48 5 0
-2 -5 48 0
-49 3 0
-49 -46 0
-49 47 0
-3 46 -47 49 0
-50 6 0
-50 34 0
-50 47 0
-6 -34 -47 50 0
-48 51 0
-49 51 0
-50 51 0
-51 48 49 50 0
-52 -51 0
-52 47 0
51 -47 52 0
-53 3 0
-53 6 0
-53 -51 0
-3 -6 51 53 0
-54 -51 0
-54 -46 0
-54 34 0
51 46 -34 54 0
-55 2 0
-55 3 0
-55 5 0
-55 6 0
-2 -3 -5 -6 55 0
-56 2 0
-56 5 0
-56 -46 0
-56 34 0
-2 -5 46 -34 56 0
-52 57 0
-53 57 0
-54 57 0
-55 57 0
-56 57 0
-57 52 53 54 55 56 0
-58 1 0
-58 4 0
-1 -4 58 0
-59 -1 0
-59 -4 0
1 4 59 0
-58 60 0
-59 60 0
-60 58 59 0
-61 -27 51 0
-61 27 -51 0
61 -27 -51 0
61 27 51 0
-62 -33 57 0
-62 33 -57 0
62 -33 -57 0
62 33 57 0
-63 -22 46 0
-63 22 -46 0
63 -22 -46 0
63 22 46 0
-64 -13 35 0
-64 13 -35 0
64 -13 -35 0
64 13 35 0
-61 -62 -63 -64 65 0
-65 61 0
-65 62 0
-65 63 0
-65 64 0
-7 -36 -66 0
-7 36 66 0
7 -36 66 0
7 36 -66 0
-60 -37 -67 0
-60 37 67 0
60 -37 67 0
60 37 -67 0
-1 -38 -68 0
-1 38 68 0
1 -38 68 0
1 38 -68 0
-4 -39 -69 0
-4 39 69 0
4 -39 69 0
4 39 -69 0
66 67 68 69 65 0
1 -273 0
4 -273 0
-1 -4 273 0
-1 -274 0
-4 -274 0
1 4 274 0
-8 -275 0
-9 -275 0
8 9 275 0
7 -276 0
10 -276 0
-7 -10 276 0
-7 -277 0
-10 -277 0
7 10 277 0
-11 -278 0
-12 -278 0
11 12 278 0
4 -279 0
7 -279 0
-4 -7 279 0
1 -280 0
-13 -280 0
-1 13 280 0
-14 -281 0
-15 -281 0
14 15 281 0
3 -282 0
6 -282 0
-3 -6 282 0
-3 -283 0
-6 -283 0
3 6 283 0
-17 -284 0
-18 -284 0
17 18 284 0
16 -285 0
19 -285 0
-16 -19 285 0
-16 -286 0
-19 -286 0
16 19 286 0
-20 -287 0
-21 -287 0
20 21 287 0
-2 -288 0
-5 -288 0
2 5 288 0
2 -289 0
5 -289 0
-2 -5 289 0
3 -290 0
-22 -290 0
-3 22 290 0
23 -291 0
290 -291 0
-23 -290 291 0
6 -292 0
16 -292 0
-6 -16 292 0
23 -293 0
292 -293 0
-23 -292 293 0
-24 -294 0
-25 -294 0
24 25 294 0
-26 -295 0
294 -295 0
26 -294 295 0
23 -296 0
-27 -296 0
-23 27 296 0
-27 -297 0
282 -297 0
27 -282 297 0
16 -298 0
-22 -298 0
-16 22 298 0
-27 -299 0
298 -299 0
27 -298 299 0
282 -300 0
289 -300 0
-282 -289 300 0
289 -301 0
298 -301 0
-289 -298 301 0
-28 -302 0
-29 -302 0
28 29 302 0
-30 -303 0
-31 -303 0
30 31 303 0
-32 -304 0
303 -304 0
32 -303 304 0
302 -305 0
304 -305 0
-302 -304 305 0
-40 -306 0
-41 -306 0
40 41 306 0
-44 -307 0
-45 -307 0
44 45 307 0
3 -308 0
-46 -308 0
-3 46 308 0
47 -309 0
308 -309 0
-47 -308 309 0
42 -310 0
-43 -310 0
-42 43 310 0
6 -311 0
-45 -311 0
-6 45 311 0
47 -312 0
311 -312 0
-47 -311 312 0
-310 -313 0
312 -313 0
310 -312 313 0
-48 -314 0
-49 -314 0
48 49 314 0
-50 -315 0
314 -315 0
50 -314 315 0
47 -316 0
-51 -316 0
-47 51 316 0
-51 -317 0
282 -317 0
51 -282 317 0
43 -318 0
-46 -318 0
-43 46 318 0
-51 -319 0
318 -319 0
51 -318 319 0
289 -320 0
318 -320 0
-289 -318 320 0
-52 -321 0
-53 -321 0
52 53 321 0
-54 -322 0
-55 -322 0
54 55 322 0
-56 -323 0
322 -323 0
56 -322 323 0
321 -324 0
323 -324 0
-321 -323 324 0
-58 -325 0
-59 -325 0
58 59 325 0
27 -326 0
-51 -326 0
-27 51 326 0
-27 -327 0
51 -327 0
27 -51 327 0
-326 -328 0
-327 -328 0
326 327 328 0
33 -329 0
-57 -329 0
-33 57 329 0
-33 -330 0
57 -330 0
33 -57 330 0
-329 -331 0
-330 -331 0
329 330 331 0
22 -332 0
-46 -332 0
-22 46 332 0
-22 -333 0
46 -333 0
22 -46 333 0
-332 -334 0
-333 -334 0
332 333 334 0
61 -335 0
62 -335 0
-61 -62 335 0
63 -336 0
64 -336 0
-63 -64 336 0
335 -337 0
336 -337 0
-335 -336 337 0
-7 -338 0
-36 -338 0
7 36 338 0
7 -339 0
36 -339 0
-7 -36 339 0
-338 -340 0
-339 -340 0
338 339 340 0
-273 -341 0
-274 -341 0
273 274 341 0
-37 -342 0
60 -342 0
37 -60 342 0
-341 -343 0
-342 -343 0
341 342 343 0
37 -344 0
-60 -344 0
-37 60 344 0
341 -345 0
-344 -345 0
-341 344 345 0
-343 -346 0
-345 -346 0
343 345 346 0
-1 -347 0
-38 -347 0
1 38 347 0
1 -348 0
38 -348 0
-1 -38 348 0
-347 -349 0
-348 -349 0
347 348 349 0
-4 -350 0
-39 -350 0
4 39 350 0
4 -351 0
39 -351 0
-4 -39 351 0
-350 -352 0
-351 -352 0
350 351 352 0
